
Gurobi 9.5.1 (linux64) logging started Tue 16 Aug 2022 05:10:06 PM MST

Set parameter LogFile to value "/home/local/ASUAD/kmajd1/NNRepLayer_v2/demos/walking_example/global_constraint_upper_10/repair_net/logs/opt_log_multi_32.log"
Gurobi Optimizer version 9.5.1 build v9.5.1rc2 (linux64)
Thread count: 48 physical cores, 96 logical processors, using up to 45 threads
Optimize a model with 16863 rows, 10742 columns and 137791 nonzeros
Model fingerprint: 0x64485720
Model has 149 quadratic objective terms
Variable types: 5974 continuous, 4768 integer (4768 binary)
Coefficient statistics:
  Matrix range     [4e-03, 3e+02]
  Objective range  [2e-03, 1e+00]
  QObjective range [1e-02, 1e-02]
  Bounds range     [1e+00, 2e+03]
  RHS range        [1e-04, 3e+02]

Concurrent MIP optimizer: 3 concurrent instances (15 threads per instance)

Presolve removed 554 rows and 128 columns
Presolve time: 0.27s
Presolved: 16309 rows, 10614 columns, 136981 nonzeros
Presolved model has 149 quadratic objective terms
Variable types: 5846 continuous, 4768 integer (4768 binary)
Root relaxation presolve removed 4768 rows and 4768 columns
Root relaxation presolved: 11541 rows, 5846 columns, 122677 nonzeros
Root relaxation presolved model has 149 quadratic objective terms


Root relaxation: objective 2.817871e+01, 5875 iterations, 0.53 seconds (0.95 work units)

    Nodes    |    Current Node    |     Objective Bounds      |     Work
 Expl Unexpl |  Obj  Depth IntInf | Incumbent    BestBd   Gap | It/Node Time

     0     0      -    -    -      181.45776   28.17871  84.5%     -    1s
     0     0      -    -    -      180.36253   28.17871  84.4%     -    4s
     0     2      -    -    -       34.18343   28.17871  17.6%     -   17s
     1     4      -    -    -       34.18343   28.17871  17.6%     -   20s
    45    61      -    -    -       34.18343   28.17871  17.6%     -   25s
    75    91      -    -    -       32.94140   28.17871  14.5%     -   56s
  1130  1146      -    -    -       31.73691   28.17871  11.2%     -   82s
  1145  1161      -    -    -       31.73691   28.17871  11.2%     -   85s
  3724  3903      -    -    -       31.73691   28.17871  11.2%     -   90s
  4091  4107      -    -    -       31.71500   28.17871  11.2%     -  102s
  4921  4981      -    -    -       31.65904   28.17871  11.0%     -  112s

Instance 1 was solved

Explored 1713 nodes (368922 simplex iterations) in 112.34 seconds (249.05 work units)
Thread count was 15 (of 96 available processors)

Solution count 10: 31.659 31.7009 31.701 ... 31.715 

Optimal solution found (tolerance 1.10e-01)
Best objective 3.165903591378e+01, best bound 2.817870861293e+01, gap 10.9932%
